results_rootrelaxation/bin018_050_027.srr.sol
solution status: optimal solution found
objective value:                                    0
_var971_                            0.339392246389938 	(obj:0)
_var1888_                            0.19781462028645 	(obj:0)
_var2693_                          0.0949782850895066 	(obj:0)
_var2706_                           0.184807671854466 	(obj:0)
_var2709_                          0.0588528990947241 	(obj:0)
_var2713_                          0.0638389203691819 	(obj:0)
_var2715_                            0.18410461869224 	(obj:0)
_var2716_                          0.0115429140720182 	(obj:0)
_var2720_                          0.0947304850820824 	(obj:0)
_var2735_                           0.388590040033786 	(obj:0)
_var2745_                          0.0183938934892648 	(obj:0)
_var2749_                           0.105604976489481 	(obj:0)
_var2753_                           0.272172942888314 	(obj:0)
_var2757_                           0.294826172093381 	(obj:0)
_var2759_                           0.260766443537665 	(obj:0)
_var2762_                           0.139720888592785 	(obj:0)
_var2764_                           0.239900238332773 	(obj:0)
_var2766_                          0.0244522317597309 	(obj:0)
_var2770_                           0.289204258381117 	(obj:0)
_var2774_                           0.117775473373924 	(obj:0)
_var2776_                           0.208935924653934 	(obj:0)
_var2778_                           0.187175298722633 	(obj:0)
_var2780_                          0.0948491343972524 	(obj:0)
_var2785_                           0.299805000497674 	(obj:0)
_var2786_                          0.0672621603208181 	(obj:0)
_var2788_                           0.165953056772307 	(obj:0)
_var2789_                           0.015058753045201 	(obj:0)
_var2791_                          0.0186982417157083 	(obj:0)
_var2792_                           0.276857432992287 	(obj:0)
_var2794_                          0.0122416028355595 	(obj:0)
_var2795_                          0.0271795921041343 	(obj:0)
_var2797_                          0.0798757160710876 	(obj:0)
_var2798_                           0.219389848675339 	(obj:0)
_var2799_                           0.228411748533116 	(obj:0)
_var2800_                           0.161746777684495 	(obj:0)
_var2801_                           0.050221959934151 	(obj:0)
_var2802_                          0.0044626252662503 	(obj:0)
_var2804_                          0.0261369065676175 	(obj:0)
_var2806_                          0.0866455108701135 	(obj:0)
_var2807_                           0.158201074097537 	(obj:0)
_var2809_                          0.0173765696235131 	(obj:0)
_var2810_                          0.0753148944079655 	(obj:0)
_var2811_                          0.0763897952979702 	(obj:0)
_var2812_                          0.0589591384286259 	(obj:0)
_var2813_                            0.14437721745628 	(obj:0)
_var2815_                          0.0166255038270741 	(obj:0)
_var2816_                          0.0735318790074478 	(obj:0)
_var2817_                           0.103188379691589 	(obj:0)
_var2821_                           0.229133863156029 	(obj:0)
_var2823_                          0.0564498829536814 	(obj:0)
_var2824_                          0.0868092636526819 	(obj:0)
_var2826_                           0.106563111480411 	(obj:0)
_var2829_                         0.00952513733966492 	(obj:0)
_var2830_                          0.0247934162044984 	(obj:0)
_var2835_                            0.22541023775543 	(obj:0)
_var2836_                           0.424801779250267 	(obj:0)
_var2837_                           0.156555011113403 	(obj:0)
_var2839_                           0.189728126028016 	(obj:0)
_var2840_                           0.252201380660001 	(obj:0)
_var2842_                           0.108931435840108 	(obj:0)
_var2845_                            0.35774777308894 	(obj:0)
_var2846_                          0.0927653391358073 	(obj:0)
_var2847_                           0.149756771775241 	(obj:0)
_var2848_                            0.13033740646705 	(obj:0)
_var2849_                           0.172117656449667 	(obj:0)
_var2851_                         0.00485331313741438 	(obj:0)
_var2852_                             0.1715170411197 	(obj:0)
_var2854_                           0.140028627431931 	(obj:0)
_var2856_                           0.284381226823584 	(obj:0)
_var2858_                            0.14248548078018 	(obj:0)
_var2859_                         0.00575298639113764 	(obj:0)
_var2863_                          0.0358801696118602 	(obj:0)
_var2864_                           0.237519330583893 	(obj:0)
_var2865_                          0.0176987679177367 	(obj:0)
_var2874_                           0.119784274795108 	(obj:0)
_var2877_                          0.0204271641242143 	(obj:0)
_var2879_                           0.173674897102812 	(obj:0)
_var2881_                          0.0357346075687113 	(obj:0)
_var2882_                           0.228736518641224 	(obj:0)
_var2883_                          0.0104720934816135 	(obj:0)
_var2884_                           0.144158028115035 	(obj:0)
_var2886_                           0.149078017048524 	(obj:0)
_var2887_                           0.123163592390367 	(obj:0)
_var2889_                          0.0293327840027811 	(obj:0)
_var2890_                           0.039920403909298 	(obj:0)
_var2891_                          0.0960300002438943 	(obj:0)
_var2895_                          0.0657642393353116 	(obj:0)
_var2896_                           0.054050156272306 	(obj:0)
_var2897_                          0.0743721445029614 	(obj:0)
_var2899_                           0.162066371545441 	(obj:0)
_var2901_                             0.1424457160972 	(obj:0)
_var2902_                          0.0690567202364872 	(obj:0)
_var2905_                          0.0378734307762996 	(obj:0)
_var2908_                           0.104827457488448 	(obj:0)
_var2909_                           0.153979774745659 	(obj:0)
_var2910_                          0.0837266951212376 	(obj:0)
_var2911_                              0.163572458341 	(obj:0)
_var2912_                           0.086248907505111 	(obj:0)
_var2916_                           0.126797733059785 	(obj:0)
_var2918_                           0.156431390486984 	(obj:0)
_var2920_                          0.0900608609909215 	(obj:0)
_var2923_                         0.00886491755105953 	(obj:0)
_var2925_                          0.0622901941843131 	(obj:0)
_var2926_                          0.0124703286118772 	(obj:0)
_var2927_                          0.0520196996669617 	(obj:0)
_var2928_                           0.227233063964796 	(obj:0)
_var2929_                          0.0994445376635679 	(obj:0)
_var2930_                           0.123619848831307 	(obj:0)
_var2931_                           0.142613102875412 	(obj:0)
_var2932_                          0.0935084873446452 	(obj:0)
_var2934_                           0.204150987218589 	(obj:0)
_var2935_                          0.0120702543948356 	(obj:0)
_var2936_                           0.165660875933415 	(obj:0)
_var2937_                          0.0273088778811736 	(obj:0)
_var2939_                           0.134699631448543 	(obj:0)
_var2940_                           0.145154327453081 	(obj:0)
_var2945_                          0.0281398474147254 	(obj:0)
_var2946_                           0.122871061540325 	(obj:0)
_var2947_                         0.00172118100896937 	(obj:0)
_var2949_                           0.156195386984686 	(obj:0)
_var2950_                           0.114488666116619 	(obj:0)
_var2951_                          0.0450210178668138 	(obj:0)
_var2953_                           0.093618188680143 	(obj:0)
_var2954_                           0.135230822835218 	(obj:0)
_var2955_                           0.147767002595442 	(obj:0)
_var2956_                          0.0327505408633984 	(obj:0)
_var2960_                          0.0386717052152695 	(obj:0)
_var2961_                          0.0775130226726944 	(obj:0)
_var2962_                           0.159830352059053 	(obj:0)
_var2964_                          0.0510442107642918 	(obj:0)
_var2965_                          0.0884780634028259 	(obj:0)
_var2968_                          0.0235268574740207 	(obj:0)
_var2969_                           0.186195242995934 	(obj:0)
_var2975_                           0.218429652688553 	(obj:0)
_var2978_                          0.0559486012703809 	(obj:0)
_var2981_                          0.0569394203401889 	(obj:0)
_var2982_                          0.0806343180291374 	(obj:0)
_var2984_                           0.045149685783804 	(obj:0)
_var2985_                         0.00495687630492828 	(obj:0)
_var2986_                          0.0567557403694463 	(obj:0)
_var2987_                          0.0877139176950061 	(obj:0)
_var2988_                         0.00407334836151427 	(obj:0)
_var2990_                          0.0422405580118207 	(obj:0)
_var2993_                         0.00596725148498375 	(obj:0)
_var2994_                          0.0679901265068576 	(obj:0)
_var2997_                          0.0347006386982854 	(obj:0)
_var2998_                          0.0337182153629348 	(obj:0)
_var2999_                            0.10743941075743 	(obj:0)
_var3005_                            0.13555592000135 	(obj:0)
_var3009_                          0.0068570486961593 	(obj:0)
_var3010_                         0.00293067398780816 	(obj:0)
_var3014_                          0.0459533526578349 	(obj:0)
