results_rootrelaxation/bin018_050_027.srr.log
SCIP version 8.0.3.5 [precision: 8 byte] [memory: block] [mode: optimized] [LP solver: Soplex 6.0.1.3] [GitHash: 438792519e]
Copyright (c) 2002-2023 Zuse Institute Berlin (ZIB)

External libraries: 
  Readline 8.1         GNU library for command line editing (gnu.org/s/readline)
  Soplex 6.0.1.3       Linear Programming Solver developed at Zuse Institute Berlin (soplex.zib.de) [GitHash: 713be0fe]
  CppAD 20180000.0     Algorithmic Differentiation of C++ algorithms developed by B. Bell (github.com/coin-or/CppAD)
  ZLIB 1.2.11          General purpose compression library by J. Gailly and M. Adler (zlib.net)
  bliss 0.77           Computing Graph Automorphism Groups by T. Junttila and P. Kaski (www.tcs.hut.fi/Software/bliss/)

user parameter file <scip.set> not found - using default parameters

srr/relaxation = TRUE

read problem <instances/bin018_050_027.srr>
============

Original problem: 
original problem has 0 variables (0 bin, 0 int, 0 impl, 0 cont) and 170 constraints

presolving:
presolving (1 rounds: 1 fast, 1 medium, 1 exhaustive):
 0 deleted vars, 0 deleted constraints, 0 added constraints, 0 tightened bounds, 0 added holes, 0 changed sides, 0 changed coefficients
 0 implications, 0 cliques
presolved problem has 0 variables (0 bin, 0 int, 0 impl, 0 cont) and 170 constraints
    170 constraints of type <linear>
Presolving Time: 0.00

 time | node  | left  |LP iter|LP it/n|mem/heur|mdpt |vars |cons |rows |cuts |sepa|confs|strbr|  dualbound   | primalbound  |  gap   | compl. 
  0.0s|     1 |     0 |     1 |     - |   922k |   0 |   1 | 170 | 170 |   0 |  0 |   0 |   0 |      --      |      --      |    Inf | unknown
  0.2s|     1 |     0 |  1272 |     - |  7090k |   0 |1605 | 170 | 170 |   0 |  0 |   0 |   0 |      --      |      --      |    Inf | unknown
r 0.8s|     1 |     0 |  6775 |     - |simplero|   0 |2693 | 170 | 170 |   0 |  0 |   0 |   0 |      --      | 3.368229e+01 |    Inf | unknown
r 0.8s|     1 |     0 |  6849 |     - |simplero|   0 |2710 | 170 | 170 |   0 |  0 |   0 |   0 |      --      | 3.229905e+01 |    Inf | unknown
r 0.8s|     1 |     0 |  6959 |     - |simplero|   0 |2727 | 170 | 170 |   0 |  0 |   0 |   0 |      --      | 3.092935e+01 |    Inf | unknown
r 0.9s|     1 |     0 |  7085 |     - |simplero|   0 |2744 | 170 | 170 |   0 |  0 |   0 |   0 |      --      | 2.932273e+01 |    Inf | unknown
r 0.9s|     1 |     0 |  7232 |     - |simplero|   0 |2761 | 170 | 170 |   0 |  0 |   0 |   0 |      --      | 2.586052e+01 |    Inf | unknown
r 0.9s|     1 |     0 |  7443 |     - |simplero|   0 |2778 | 170 | 170 |   0 |  0 |   0 |   0 |      --      | 2.265860e+01 |    Inf | unknown
r 0.9s|     1 |     0 |  7629 |     - |simplero|   0 |2795 | 170 | 170 |   0 |  0 |   0 |   0 |      --      | 2.021303e+01 |    Inf | unknown
r 1.0s|     1 |     0 |  7742 |     - |simplero|   0 |2812 | 170 | 170 |   0 |  0 |   0 |   0 |      --      | 1.799237e+01 |    Inf | unknown
r 1.0s|     1 |     0 |  7818 |     - |simplero|   0 |2812 | 170 | 170 |   0 |  0 |   0 |   0 |      --      | 1.741955e+01 |    Inf | unknown
r 1.0s|     1 |     0 |  7842 |     - |simplero|   0 |2812 | 170 | 170 |   0 |  0 |   0 |   0 |      --      | 1.738018e+01 |    Inf | unknown
r 1.0s|     1 |     0 |  7844 |     - |simplero|   0 |2812 | 170 | 170 |   0 |  0 |   0 |   0 |      --      | 1.738014e+01 |    Inf | unknown
r 1.0s|     1 |     0 |  7994 |     - |simplero|   0 |2829 | 170 | 170 |   0 |  0 |   0 |   0 |      --      | 1.533276e+01 |    Inf | unknown
r 1.0s|     1 |     0 |  8015 |     - |simplero|   0 |2829 | 170 | 170 |   0 |  0 |   0 |   0 |      --      | 1.528351e+01 |    Inf | unknown
 time | node  | left  |LP iter|LP it/n|mem/heur|mdpt |vars |cons |rows |cuts |sepa|confs|strbr|  dualbound   | primalbound  |  gap   | compl. 
r 1.0s|     1 |     0 |  8021 |     - |simplero|   0 |2829 | 170 | 170 |   0 |  0 |   0 |   0 |      --      | 1.528001e+01 |    Inf | unknown
r 1.0s|     1 |     0 |  8022 |     - |simplero|   0 |2829 | 170 | 170 |   0 |  0 |   0 |   0 |      --      | 1.527995e+01 |    Inf | unknown
r 1.0s|     1 |     0 |  8152 |     - |simplero|   0 |2846 | 170 | 170 |   0 |  0 |   0 |   0 |      --      | 1.379985e+01 |    Inf | unknown
r 1.0s|     1 |     0 |  8229 |     - |simplero|   0 |2846 | 170 | 170 |   0 |  0 |   0 |   0 |      --      | 1.318871e+01 |    Inf | unknown
r 1.0s|     1 |     0 |  8256 |     - |simplero|   0 |2846 | 170 | 170 |   0 |  0 |   0 |   0 |      --      | 1.305447e+01 |    Inf | unknown
r 1.0s|     1 |     0 |  8269 |     - |simplero|   0 |2846 | 170 | 170 |   0 |  0 |   0 |   0 |      --      | 1.304990e+01 |    Inf | unknown
r 1.0s|     1 |     0 |  8392 |     - |simplero|   0 |2863 | 170 | 170 |   0 |  0 |   0 |   0 |      --      | 1.083529e+01 |    Inf | unknown
r 1.1s|     1 |     0 |  8499 |     - |simplero|   0 |2863 | 170 | 170 |   0 |  0 |   0 |   0 |      --      | 9.599703e+00 |    Inf | unknown
r 1.1s|     1 |     0 |  8565 |     - |simplero|   0 |2863 | 170 | 170 |   0 |  0 |   0 |   0 |      --      | 9.329235e+00 |    Inf | unknown
r 1.1s|     1 |     0 |  8567 |     - |simplero|   0 |2863 | 170 | 170 |   0 |  0 |   0 |   0 |      --      | 9.329210e+00 |    Inf | unknown
r 1.1s|     1 |     0 |  8699 |     - |simplero|   0 |2880 | 170 | 170 |   0 |  0 |   0 |   0 |      --      | 7.543229e+00 |    Inf | unknown
r 1.1s|     1 |     0 |  8722 |     - |simplero|   0 |2880 | 170 | 170 |   0 |  0 |   0 |   0 |      --      | 7.500909e+00 |    Inf | unknown
r 1.1s|     1 |     0 |  8737 |     - |simplero|   0 |2880 | 170 | 170 |   0 |  0 |   0 |   0 |      --      | 7.485744e+00 |    Inf | unknown
r 1.1s|     1 |     0 |  8744 |     - |simplero|   0 |2880 | 170 | 170 |   0 |  0 |   0 |   0 |      --      | 7.483306e+00 |    Inf | unknown
r 1.1s|     1 |     0 |  8858 |     - |simplero|   0 |2897 | 170 | 170 |   0 |  0 |   0 |   0 |      --      | 6.485576e+00 |    Inf | unknown
 time | node  | left  |LP iter|LP it/n|mem/heur|mdpt |vars |cons |rows |cuts |sepa|confs|strbr|  dualbound   | primalbound  |  gap   | compl. 
r 1.1s|     1 |     0 |  8898 |     - |simplero|   0 |2897 | 170 | 170 |   0 |  0 |   0 |   0 |      --      | 6.353704e+00 |    Inf | unknown
r 1.1s|     1 |     0 |  8900 |     - |simplero|   0 |2897 | 170 | 170 |   0 |  0 |   0 |   0 |      --      | 6.353461e+00 |    Inf | unknown
r 1.1s|     1 |     0 |  9030 |     - |simplero|   0 |2914 | 170 | 170 |   0 |  0 |   0 |   0 |      --      | 5.096625e+00 |    Inf | unknown
r 1.2s|     1 |     0 |  9053 |     - |simplero|   0 |2914 | 170 | 170 |   0 |  0 |   0 |   0 |      --      | 5.000297e+00 |    Inf | unknown
r 1.2s|     1 |     0 |  9061 |     - |simplero|   0 |2914 | 170 | 170 |   0 |  0 |   0 |   0 |      --      | 4.991956e+00 |    Inf | unknown
r 1.2s|     1 |     0 |  9063 |     - |simplero|   0 |2914 | 170 | 170 |   0 |  0 |   0 |   0 |      --      | 4.991594e+00 |    Inf | unknown
r 1.2s|     1 |     0 |  9158 |     - |simplero|   0 |2931 | 170 | 170 |   0 |  0 |   0 |   0 |      --      | 4.135195e+00 |    Inf | unknown
  1.2s|     1 |     0 |  9209 |     - |    14M |   0 |2931 | 170 | 170 |   0 |  0 |   0 |   0 |      --      | 4.135195e+00 |    Inf | unknown
r 1.2s|     1 |     0 |  9209 |     - |simplero|   0 |2931 | 170 | 170 |   0 |  0 |   0 |   0 |      --      | 3.818790e+00 |    Inf | unknown
r 1.2s|     1 |     0 |  9217 |     - |simplero|   0 |2931 | 170 | 170 |   0 |  0 |   0 |   0 |      --      | 3.813536e+00 |    Inf | unknown
r 1.2s|     1 |     0 |  9218 |     - |simplero|   0 |2931 | 170 | 170 |   0 |  0 |   0 |   0 |      --      | 3.812740e+00 |    Inf | unknown
r 1.2s|     1 |     0 |  9222 |     - |simplero|   0 |2931 | 170 | 170 |   0 |  0 |   0 |   0 |      --      | 3.812062e+00 |    Inf | unknown
r 1.2s|     1 |     0 |  9323 |     - |simplero|   0 |2948 | 170 | 170 |   0 |  0 |   0 |   0 |      --      | 3.052627e+00 |    Inf | unknown
r 1.2s|     1 |     0 |  9395 |     - |simplero|   0 |2948 | 170 | 170 |   0 |  0 |   0 |   0 |      --      | 2.653583e+00 |    Inf | unknown
r 1.2s|     1 |     0 |  9397 |     - |simplero|   0 |2948 | 170 | 170 |   0 |  0 |   0 |   0 |      --      | 2.653203e+00 |    Inf | unknown
 time | node  | left  |LP iter|LP it/n|mem/heur|mdpt |vars |cons |rows |cuts |sepa|confs|strbr|  dualbound   | primalbound  |  gap   | compl. 
r 1.2s|     1 |     0 |  9500 |     - |simplero|   0 |2965 | 170 | 170 |   0 |  0 |   0 |   0 |      --      | 1.621956e+00 |    Inf | unknown
r 1.2s|     1 |     0 |  9557 |     - |simplero|   0 |2965 | 170 | 170 |   0 |  0 |   0 |   0 |      --      | 1.394294e+00 |    Inf | unknown
r 1.3s|     1 |     0 |  9593 |     - |simplero|   0 |2965 | 170 | 170 |   0 |  0 |   0 |   0 |      --      | 1.365142e+00 |    Inf | unknown
r 1.3s|     1 |     0 |  9611 |     - |simplero|   0 |2965 | 170 | 170 |   0 |  0 |   0 |   0 |      --      | 1.359137e+00 |    Inf | unknown
r 1.3s|     1 |     0 |  9712 |     - |simplero|   0 |2982 | 170 | 170 |   0 |  0 |   0 |   0 |      --      | 7.014714e-01 |    Inf | unknown
r 1.3s|     1 |     0 |  9761 |     - |simplero|   0 |2982 | 170 | 170 |   0 |  0 |   0 |   0 |      --      | 6.326317e-01 |    Inf | unknown
r 1.3s|     1 |     0 |  9864 |     - |simplero|   0 |2999 | 170 | 170 |   0 |  0 |   0 |   0 |      --      | 2.220245e-01 |    Inf | unknown
r 1.3s|     1 |     0 |  9873 |     - |simplero|   0 |2999 | 170 | 170 |   0 |  0 |   0 |   0 |      --      | 2.117056e-01 |    Inf | unknown
r 1.3s|     1 |     0 |  9924 |     - |simplero|   0 |3016 | 170 | 170 |   0 |  0 |   0 |   0 |      --      | 0.000000e+00 |    Inf | unknown
  1.3s|     1 |     0 |  9924 |     - |    15M |   0 |3016 | 170 | 170 |   0 |  0 |   0 |   0 | 0.000000e+00 | 0.000000e+00 |   0.00%| unknown
  1.3s|     1 |     0 |  9924 |     - |    15M |   0 |3016 | 170 | 170 |   0 |  0 |   0 |   0 | 0.000000e+00 | 0.000000e+00 |   0.00%| unknown

SCIP Status        : problem is solved [optimal solution found]
Solving Time (sec) : 1.31
Solving Nodes      : 1
Primal Bound       : +0.00000000000000e+00 (51 solutions)
Dual Bound         : +0.00000000000000e+00
Gap                : 0.00 %

written transformed problem to file <results_rootrelaxation/bin018_050_027.srr.lp>
written transformed problem to file <results_rootrelaxation/bin018_050_027.srr.cip>

written solution information to file <results_rootrelaxation/bin018_050_027.srr.sol>



